p tw 119 129
1 2
2 3
11 12
101 102
103 104
104 118
105 106
106 107
107 108
108 109
109 110
110 111
12 13
111 112
112 113
113 114
114 115
115 116
116 117
117 118
118 119
13 14
14 15
15 16
16 17
17 18
18 105
18 19
19 20
20 21
3 4
21 22
22 23
22 25
23 24
24 25
25 26
26 27
27 28
28 29
29 30
30 31
4 5
31 32
32 33
33 34
33 36
34 35
35 38
36 37
37 38
38 39
39 40
40 41
5 6
41 42
42 43
43 44
44 45
45 46
46 47
47 48
48 49
49 50
50 51
6 7
51 52
52 53
53 54
54 55
55 56
55 58
56 57
57 60
58 59
59 60
60 61
7 114
7 8
61 62
62 63
63 64
64 65
65 66
66 67
67 68
68 69
69 70
70 71
8 9
71 72
72 102
72 73
73 74
74 103
74 75
75 76
76 77
76 91
77 78
78 79
79 80
80 81
9 19
9 10
81 82
82 83
83 84
83 92
84 85
85 86
85 88
86 87
87 88
88 89
89 90
90 91
10 11
91 92
92 93
93 94
94 105
94 95
95 96
96 97
97 98
98 99
99 100
100 101
